Maximize
  0 x0 + 0 x1 - 11 x2 + 0 x3 + 0 x4 - 27 x5 + 0 x6 + 0 x7 + 0 x8 - 49 x9
   + 0 x10 + 0 x11 + 0 x12 + 0 x13 + 0 x14 + 0 x15 + 0 x16 - 41 x17 + 0 x18
   + 0 x19 - 13 x20 + 0 x21 + 0 x22 + 0 x23 + 0 x24 + 27 x25 + 0 x26
   + 0 x27 + 0 x28 + 0 x29 + 10 x30 + 0 x31 + 0 x32 + 0 x33 + 0 x34 + 0 x35
   + 0 x36 + 0 x37 + 0 x38 + 0 x39 + 0 x40 + 0 x41 + 0 x42 + 0 x43 - 36 x44
   + 0 x45 + 0 x46 + 0 x47 + 0 x48 + 0 x49 + 0 x50 + 0 x51 + 17 x52 + 0 x53
   - 49 x54 + 0 x55 + 0 x56 + 0 x57 + 35 x58 - 34 x59 + 0 x60 + 0 x61
   + 0 x62 + 0 x63 + 0 x64 + 0 x65 + 0 x66 + 0 x67 + 0 x68 + 0 x69 + 0 x70
   + 0 x71 + 0 x72 - 5 x73 + 48 x74 + 0 x75 - 38 x76 + 0 x77 + 0 x78
   + 46 x79 + [ - 70 x0 * x3 + 8 x0 * x7 + 76 x0 * x8 - 64 x0 * x11
   + 50 x0 * x13 - 36 x0 * x16 - 40 x0 * x21 + 12 x0 * x22 - 90 x0 * x27
   - 56 x0 * x38 + 84 x0 * x41 - 98 x0 * x46 - 12 x0 * x47 + 2 x0 * x48
   - 32 x0 * x55 - 82 x0 * x57 - 82 x0 * x67 + 46 x0 * x71 - 82 x0 * x73
   - 14 x0 * x74 - 82 x0 * x76 + x1 ^2 + 6 x1 * x5 - 24 x1 * x6 + 2 x1 * x8
   + 86 x1 * x12 + 46 x1 * x17 - 50 x1 * x24 + 36 x1 * x25 - 20 x1 * x31
   + 92 x1 * x33 - 82 x1 * x34 + 42 x1 * x39 - 40 x1 * x44 + 10 x1 * x49
   - 12 x1 * x55 - 96 x1 * x71 - 82 x2 * x5 - 6 x2 * x10 + 76 x2 * x12
   - 18 x2 * x22 + 24 x2 * x31 + 34 x2 * x37 + 44 x2 * x40 - 16 x2 * x41
   - 32 x2 * x43 + 72 x2 * x45 - 2 x2 * x55 + 36 x2 * x56 + 64 x2 * x61
   + 64 x2 * x62 + 72 x2 * x65 - 90 x2 * x67 - 64 x2 * x74 - 60 x3 * x11
   - 66 x3 * x15 + 14 x3 * x26 - 82 x3 * x29 - 54 x3 * x43 + 50 x3 * x47
   - 62 x3 * x51 + 68 x3 * x53 - 36 x3 * x55 + 32 x3 * x59 - 86 x3 * x60
   + 56 x3 * x62 - 16 x3 * x63 + 2 x3 * x73 - 96 x3 * x77 - 28 x3 * x78
   + 14 x3 * x79 + 2 x4 * x5 - 86 x4 * x13 + 10 x4 * x19 + 72 x4 * x20
   + 82 x4 * x22 + 82 x4 * x23 - 50 x4 * x33 + 18 x4 * x37 + 28 x4 * x38
   + 26 x4 * x41 - 42 x4 * x46 + 70 x4 * x47 - 16 x4 * x49 + 68 x4 * x54
   - 32 x4 * x55 + 84 x4 * x57 + 16 x4 * x58 - 70 x4 * x64 + 50 x4 * x78
   - 84 x4 * x79 + 10 x5 * x7 + 66 x5 * x11 - 62 x5 * x15 + 36 x5 * x17
   - 50 x5 * x19 - 14 x5 * x21 - 94 x5 * x22 - 90 x5 * x23 - 26 x5 * x33
   + 78 x5 * x35 + 38 x5 * x36 - 56 x5 * x48 - 76 x5 * x53 + 6 x5 * x54
   - 90 x5 * x64 + 8 x5 * x72 + 40 x5 * x74 + 86 x5 * x75 + 24 x6 * x8
   - 14 x6 * x9 - 98 x6 * x10 - 82 x6 * x20 - 88 x6 * x22 - 36 x6 * x34
   - 4 x6 * x37 + 78 x6 * x39 + 90 x6 * x44 + 82 x6 * x49 - 56 x6 * x52
   + 84 x6 * x54 - 92 x6 * x62 - 12 x6 * x71 - 50 x7 * x8 - 72 x7 * x9
   + 78 x7 * x10 + 94 x7 * x16 - 86 x7 * x18 + 50 x7 * x25 - 8 x7 * x26
   - 10 x7 * x30 - 42 x7 * x34 + 20 x7 * x36 + 6 x7 * x37 - 74 x7 * x38
   + 10 x7 * x46 - 58 x7 * x51 - 34 x7 * x53 - 54 x7 * x55 + 70 x7 * x60
   + 2 x7 * x69 + 90 x7 * x71 - 4 x7 * x79 + 35 x8 ^2 - 54 x8 * x12
   - 16 x8 * x14 + 8 x8 * x15 - 30 x8 * x22 - 14 x8 * x25 - 98 x8 * x26
   - 86 x8 * x30 + 86 x8 * x36 - 94 x8 * x38 + 68 x8 * x43 - 86 x8 * x44
   - 10 x8 * x48 - 36 x8 * x50 + 88 x8 * x56 + 18 x8 * x59 + 16 x8 * x61
   + 50 x8 * x63 - 86 x8 * x78 + 34 x9 * x18 - 12 x9 * x22 - 98 x9 * x24
   + 68 x9 * x32 + 94 x9 * x33 - 18 x9 * x43 - 2 x9 * x48 - 50 x9 * x49
   + 22 x9 * x50 - 74 x9 * x53 + 40 x9 * x61 - 62 x9 * x62 - 80 x9 * x66
   - 48 x9 * x68 - 62 x9 * x75 + 50 x9 * x77 - 26 x10 * x11 + 2 x10 * x12
   - 38 x10 * x19 - 84 x10 * x23 - 46 x10 * x24 - 16 x10 * x25
   + 6 x10 * x27 - 32 x10 * x28 + 40 x10 * x29 - 38 x10 * x30
   - 32 x10 * x44 - 58 x10 * x53 - 44 x10 * x59 + 66 x10 * x66
   - 2 x10 * x67 + 70 x10 * x70 + 38 x11 * x14 - 82 x11 * x16
   - 28 x11 * x20 + 6 x11 * x25 + 52 x11 * x26 + 50 x11 * x27
   + 38 x11 * x28 + 34 x11 * x35 - 98 x11 * x45 + 96 x11 * x47
   - 54 x11 * x49 + 24 x11 * x56 - 40 x11 * x58 - 48 x11 * x61
   + 4 x11 * x75 - 8 x11 * x78 - 30 x11 * x79 + 48 x12 * x15 + 18 x12 * x19
   - 90 x12 * x24 + 44 x12 * x27 + 2 x12 * x29 + 94 x12 * x35
   - 78 x12 * x46 - 92 x12 * x47 + 4 x12 * x49 - 26 x12 * x56 - 4 x12 * x59
   - 50 x12 * x64 + 28 x12 * x65 - 20 x12 * x66 - 94 x12 * x74
   + 24 x12 * x75 - 80 x12 * x76 + 94 x12 * x79 + 48 x13 * x14
   + 80 x13 * x15 + 66 x13 * x17 + 70 x13 * x19 + 50 x13 * x22
   - 74 x13 * x23 + 68 x13 * x26 + 66 x13 * x27 + 70 x13 * x30
   + 10 x13 * x31 + 80 x13 * x32 - 34 x13 * x38 - 76 x13 * x42
   - 48 x13 * x43 + 56 x13 * x48 - 48 x13 * x49 + 18 x13 * x57
   + 10 x13 * x60 - 92 x13 * x61 - 70 x13 * x67 - 80 x13 * x76
   - 86 x14 * x17 - 92 x14 * x20 - 78 x14 * x24 - 86 x14 * x31
   + 20 x14 * x34 + 94 x14 * x42 - 92 x14 * x43 - 18 x14 * x46
   + 70 x14 * x50 - 82 x14 * x60 + 24 x14 * x61 + 58 x14 * x65
   + 34 x14 * x66 - 14 x14 * x68 - 8 x14 * x72 + 70 x14 * x75
   - 72 x14 * x79 + 68 x15 * x17 - 98 x15 * x18 + 18 x15 * x23
   - 14 x15 * x24 - 82 x15 * x28 - 28 x15 * x30 - 92 x15 * x33
   - 60 x15 * x34 - 14 x15 * x36 + 8 x15 * x40 - 22 x15 * x41
   - 14 x15 * x43 + 40 x15 * x46 - 46 x15 * x48 - 52 x15 * x49
   + 24 x15 * x74 + 18 x15 * x75 + 28 x16 * x17 - 70 x16 * x24
   + 92 x16 * x28 - 50 x16 * x30 + 18 x16 * x31 - 44 x16 * x33
   + 2 x16 * x42 - 92 x16 * x46 + 54 x16 * x48 - 88 x16 * x51
   - 88 x16 * x58 + 30 x16 * x59 - 28 x16 * x61 - 78 x16 * x67
   - 28 x16 * x74 + 28 x17 ^2 + 70 x17 * x19 - 82 x17 * x23 - 68 x17 * x37
   - 96 x17 * x40 - 10 x17 * x43 + 52 x17 * x47 + 64 x17 * x49
   + 16 x17 * x50 - 94 x17 * x67 + 54 x18 * x19 + 86 x18 * x24
   - 78 x18 * x29 + 92 x18 * x30 + 74 x18 * x32 - 92 x18 * x50
   + 16 x18 * x63 - 68 x18 * x65 - 24 x18 * x67 + 76 x18 * x71
   + 68 x18 * x78 + 47 x19 ^2 - 90 x19 * x24 - 26 x19 * x34 - 46 x19 * x36
   + 72 x19 * x42 - 64 x19 * x43 + 30 x19 * x48 - 2 x19 * x50
   - 22 x19 * x56 + 20 x19 * x68 + 32 x19 * x71 + 18 x19 * x74
   + 58 x20 * x21 - 98 x20 * x26 - 20 x20 * x33 + 4 x20 * x36
   + 92 x20 * x39 - 82 x20 * x43 - 10 x20 * x49 + 46 x20 * x52
   + 74 x20 * x54 + 14 x20 * x67 - 54 x20 * x71 - 90 x20 * x72
   + 56 x20 * x73 - 86 x20 * x78 - 20 x21 ^2 + 22 x21 * x23 + 22 x21 * x28
   + 24 x21 * x39 + 52 x21 * x43 - 32 x21 * x44 - 80 x21 * x46
   - 34 x21 * x47 - 18 x21 * x52 - 60 x21 * x54 + 18 x21 * x58
   + 94 x21 * x59 + 90 x21 * x62 + 44 x21 * x71 + 98 x22 * x25
   - 28 x22 * x28 - 42 x22 * x33 - 56 x22 * x34 - 74 x22 * x35
   + 42 x22 * x37 - 82 x22 * x43 - 78 x22 * x44 - 8 x22 * x48
   - 16 x22 * x54 - 36 x22 * x57 - 64 x22 * x58 + 22 x22 * x64
   + 28 x22 * x66 - 46 x22 * x71 + 88 x22 * x73 + 42 x22 * x77
   - 46 x22 * x79 - 42 x23 * x24 - 60 x23 * x25 + 48 x23 * x28
   + 86 x23 * x33 - 48 x23 * x37 - 30 x23 * x43 + 6 x23 * x44
   + 16 x23 * x46 + 66 x23 * x47 - 12 x23 * x48 - 32 x23 * x49
   - 70 x23 * x60 - 4 x23 * x63 + 88 x23 * x66 - 38 x23 * x75
   - 82 x23 * x77 - 68 x24 * x33 - 8 x24 * x34 - 42 x24 * x37
   - 60 x24 * x52 - 4 x24 * x61 - 24 x24 * x64 - 27 x25 ^2 + 50 x25 * x26
   + 60 x25 * x34 + 60 x25 * x36 - 42 x25 * x37 + 74 x25 * x51
   + 14 x25 * x53 - 30 x25 * x66 + 4 x25 * x67 - 54 x25 * x69
   - 24 x25 * x75 - 5 x26 ^2 - 86 x26 * x28 - 50 x26 * x32 - 76 x26 * x34
   + 72 x26 * x35 - 82 x26 * x40 - 12 x26 * x42 + 22 x26 * x43
   + 80 x26 * x45 + 58 x26 * x46 - 12 x26 * x47 - 34 x26 * x52
   + 74 x26 * x63 + 16 x26 * x70 + 96 x26 * x71 - 62 x26 * x72
   + 92 x26 * x74 - 18 x27 * x28 + 52 x27 * x31 + 56 x27 * x44
   + 54 x27 * x47 - 88 x27 * x49 - 10 x27 * x55 - 74 x27 * x63
   + 42 x27 * x76 + 96 x27 * x78 - 72 x27 * x79 + 74 x28 * x30
   - 80 x28 * x35 - 54 x28 * x38 - 52 x28 * x49 + 40 x28 * x51
   + 96 x28 * x52 + 56 x28 * x55 + 16 x28 * x57 + 30 x28 * x62
   - 82 x28 * x71 - 78 x28 * x74 + 56 x28 * x78 - 72 x29 * x37
   + 22 x29 * x38 + 28 x29 * x42 + 72 x29 * x48 - 34 x29 * x49
   - 26 x29 * x62 + 62 x29 * x65 - 62 x29 * x71 + 96 x29 * x72 + 39 x30 ^2
   + 18 x30 * x35 + 68 x30 * x38 + 16 x30 * x42 - 24 x30 * x55
   + 94 x30 * x57 - 28 x30 * x59 + 30 x30 * x60 - 44 x30 * x62
   - 58 x30 * x65 + 74 x30 * x66 + 60 x30 * x71 - 58 x30 * x78
   + 26 x31 * x33 + 16 x31 * x35 + 86 x31 * x38 + 24 x31 * x41
   - 96 x31 * x43 - 24 x31 * x44 - 32 x31 * x48 + 72 x31 * x50
   + 42 x31 * x52 + 78 x31 * x57 - 84 x31 * x63 - 16 x31 * x66
   + 52 x31 * x67 + 22 x31 * x75 - 50 x31 * x76 + 26 x31 * x77 - 3 x32 ^2
   + 6 x32 * x33 + 8 x32 * x35 + 60 x32 * x39 - 46 x32 * x43 + 42 x32 * x63
   + 2 x32 * x64 - 26 x32 * x67 + 58 x32 * x76 - 22 x32 * x79 - 12 x33 ^2
   + 22 x33 * x35 - 10 x33 * x38 + 70 x33 * x41 - 72 x33 * x44
   - 4 x33 * x45 + 6 x33 * x47 + 62 x33 * x59 + 26 x33 * x65 + 16 x33 * x69
   - 28 x33 * x70 - 62 x33 * x76 + 37 x34 ^2 + 44 x34 * x37 + 72 x34 * x38
   - 36 x34 * x51 + 74 x34 * x59 + 18 x34 * x60 - 90 x34 * x61
   + 84 x35 * x37 + 96 x35 * x43 - 10 x35 * x44 + 98 x35 * x46
   + 6 x35 * x48 - 46 x35 * x54 - 72 x35 * x66 - 22 x35 * x72
   + 32 x35 * x73 + 62 x35 * x75 - 30 x35 * x78 + 24 x36 * x37
   + 90 x36 * x43 + 14 x36 * x45 - 88 x36 * x48 - 90 x36 * x52
   + 20 x36 * x53 - 22 x36 * x57 + 90 x36 * x58 - 84 x36 * x61
   + 98 x36 * x62 + 68 x36 * x63 + 32 x36 * x65 - 20 x36 * x67
   + 46 x36 * x68 - 42 x36 * x69 - 18 x36 * x72 - 84 x36 * x74
   - 30 x37 * x45 - 42 x37 * x47 + 74 x37 * x53 - 96 x37 * x54
   - 22 x37 * x55 + 16 x37 * x56 + 38 x37 * x59 + 48 x37 * x69
   - 58 x37 * x77 - 82 x37 * x78 + 49 x38 ^2 + 32 x38 * x41 + 74 x38 * x43
   - 6 x38 * x47 + 24 x38 * x49 + 20 x38 * x53 - 44 x38 * x64
   - 44 x38 * x66 + 88 x38 * x79 - 88 x39 * x45 - 32 x39 * x46
   - 62 x39 * x50 + 2 x39 * x61 - 10 x39 * x62 + 54 x39 * x68
   - 26 x39 * x75 + 16 x40 * x42 - 76 x40 * x49 - 12 x40 * x54
   - 30 x40 * x56 - 20 x40 * x57 - 32 x40 * x59 + 24 x40 * x65
   - 4 x40 * x66 - 42 x40 * x68 + 82 x40 * x71 + 62 x40 * x74 - 4 x40 * x76
   - 66 x40 * x77 - 2 x41 * x44 + 88 x41 * x50 - 16 x41 * x55
   + 28 x41 * x57 - 4 x41 * x60 + 20 x41 * x63 - 68 x41 * x67
   - 84 x41 * x73 - 4 x41 * x74 + 36 x42 * x49 - 12 x42 * x53
   - 56 x42 * x59 - 56 x42 * x73 - 10 x42 * x74 - 32 x42 * x75
   - 8 x42 * x77 + 52 x43 * x47 + 88 x43 * x49 + 72 x43 * x53
   - 12 x43 * x56 - 50 x43 * x57 + 56 x43 * x64 - 24 x44 * x52
   + 16 x44 * x56 - 94 x44 * x66 + 14 x44 * x76 + 82 x44 * x78
   + 4 x44 * x79 - 11 x45 ^2 + 48 x45 * x47 - 98 x45 * x59 - 12 x45 * x60
   - 24 x45 * x61 + 90 x45 * x62 - 84 x45 * x67 + 74 x45 * x70
   - 38 x45 * x76 + 94 x45 * x78 - 68 x46 * x51 + 62 x46 * x58
   + 82 x46 * x60 - 12 x46 * x68 + 74 x46 * x73 + 92 x46 * x76
   - 8 x46 * x78 + 40 x47 * x52 - 70 x47 * x57 + 84 x47 * x62
   + 18 x47 * x68 + 56 x47 * x70 + 90 x47 * x72 - 68 x47 * x79
   - 38 x48 * x56 - 62 x48 * x57 + 28 x48 * x64 + 16 x48 * x65
   - 6 x48 * x68 + 60 x48 * x72 + 82 x48 * x74 + 22 x48 * x76
   + 28 x48 * x78 + 60 x48 * x79 + 39 x49 ^2 + 98 x49 * x50 - 38 x49 * x51
   - 6 x49 * x52 - 38 x49 * x55 - 84 x49 * x58 + 12 x49 * x69
   + 90 x49 * x74 + 44 x50 * x52 + 72 x50 * x54 - 30 x50 * x56
   + 22 x50 * x57 + 34 x50 * x58 - 66 x50 * x60 - 60 x50 * x61
   + 26 x50 * x63 - 30 x50 * x66 + 46 x50 * x67 - 2 x50 * x72
   - 66 x50 * x75 + 14 x51 * x53 + 4 x51 * x55 - 34 x51 * x56
   - 32 x51 * x58 + 98 x51 * x62 - 66 x51 * x63 - 22 x51 * x65
   - 12 x51 * x71 - 18 x51 * x72 + 80 x51 * x74 - 16 x51 * x75
   + 86 x51 * x78 + 41 x52 ^2 + 50 x52 * x55 + 60 x52 * x57 - 78 x52 * x58
   + 4 x52 * x60 + 88 x52 * x61 + 6 x52 * x62 + 20 x52 * x63 - 36 x52 * x64
   - 56 x52 * x69 - 64 x53 * x64 + 36 x53 * x66 - 92 x53 * x67
   - 78 x53 * x69 + 14 x53 * x75 + 70 x53 * x77 + 20 x53 * x79
   - 72 x54 * x63 + 44 x54 * x67 - 94 x54 * x78 - 48 x55 ^2 + 30 x55 * x57
   + 96 x55 * x63 + 88 x55 * x64 - 24 x55 * x66 - 24 x55 * x67
   - 28 x55 * x70 - 72 x55 * x73 + 90 x55 * x75 + 6 x56 ^2 - 18 x56 * x57
   + 58 x56 * x63 + 50 x56 * x67 - 42 x56 * x69 + 36 x56 * x70
   + 88 x56 * x77 + 50 x57 * x64 + 78 x57 * x75 + 58 x58 * x63
   - 54 x58 * x70 + 10 x58 * x78 - 38 x59 * x60 - 24 x59 * x71
   - 42 x59 * x76 - 72 x59 * x77 - 86 x59 * x78 + 92 x60 * x64
   + 4 x60 * x69 - 48 x60 * x72 - 46 x61 ^2 + 56 x61 * x69 - 94 x61 * x73
   - 72 x61 * x75 + 98 x61 * x76 - 98 x62 * x75 - 84 x63 * x66
   - 26 x63 * x69 + 42 x63 * x70 + 98 x63 * x74 + 12 x64 * x65
   + 64 x65 * x66 - 58 x65 * x75 - 72 x65 * x78 - 28 x66 * x67
   - 96 x66 * x69 + 34 x67 ^2 + 62 x67 * x68 - 74 x67 * x69 + 46 x67 * x70
   + 50 x67 * x76 - 48 x68 ^2 - 80 x69 * x73 + 26 x69 * x75 + 76 x69 * x76
   - 30 x70 * x72 - 42 x70 * x75 + 66 x70 * x79 - 26 x71 * x72
   - 54 x71 * x74 + 4 x71 * x76 - 16 x72 * x75 - 86 x72 * x76
   + 82 x73 * x74 + 2 x73 * x79 - 2 x74 * x76 - 96 x75 * x76 - 64 x76 * x77
   + 28 x76 * x78 - 94 x76 * x79 - 76 x77 * x79 ] / 2 
Subject To
Bounds
 x0 <= 1
 x1 <= 1
 x2 <= 1
 x3 <= 1
 x4 <= 1
 x5 <= 1
 x6 <= 1
 x7 <= 1
 x8 <= 1
 x9 <= 1
 x10 <= 1
 x11 <= 1
 x12 <= 1
 x13 <= 1
 x14 <= 1
 x15 <= 1
 x16 <= 1
 x17 <= 1
 x18 <= 1
 x19 <= 1
 x20 <= 1
 x21 <= 1
 x22 <= 1
 x23 <= 1
 x24 <= 1
 x25 <= 1
 x26 <= 1
 x27 <= 1
 x28 <= 1
 x29 <= 1
 x30 <= 1
 x31 <= 1
 x32 <= 1
 x33 <= 1
 x34 <= 1
 x35 <= 1
 x36 <= 1
 x37 <= 1
 x38 <= 1
 x39 <= 1
 x40 <= 1
 x41 <= 1
 x42 <= 1
 x43 <= 1
 x44 <= 1
 x45 <= 1
 x46 <= 1
 x47 <= 1
 x48 <= 1
 x49 <= 1
 x50 <= 1
 x51 <= 1
 x52 <= 1
 x53 <= 1
 x54 <= 1
 x55 <= 1
 x56 <= 1
 x57 <= 1
 x58 <= 1
 x59 <= 1
 x60 <= 1
 x61 <= 1
 x62 <= 1
 x63 <= 1
 x64 <= 1
 x65 <= 1
 x66 <= 1
 x67 <= 1
 x68 <= 1
 x69 <= 1
 x70 <= 1
 x71 <= 1
 x72 <= 1
 x73 <= 1
 x74 <= 1
 x75 <= 1
 x76 <= 1
 x77 <= 1
 x78 <= 1
 x79 <= 1
End
